(set-logic QF_BV)
(declare-fun x0 () (_ BitVec 8))
(declare-fun x1 () (_ BitVec 8))
(declare-fun x2 () (_ BitVec 8))
(declare-fun x3 () (_ BitVec 8))
(declare-fun x4 () (_ BitVec 8))
(declare-fun x5 () (_ BitVec 8))
(declare-fun x6 () (_ BitVec 8))
(declare-fun x7 () (_ BitVec 8))
(declare-fun x8 () (_ BitVec 8))
(declare-fun x9 () (_ BitVec 8))
(declare-fun x10 () (_ BitVec 8))
(declare-fun x11 () (_ BitVec 8))
(declare-fun x12 () (_ BitVec 8))
(assert (let ((?v_3 (_ bv0 32)) (?v_2 (_ bv0 32)) (?v_4 (_ bv0 32))) (let ((?v_5 (_ bv0 32))) (let ((?v_6 (_ bv0 32))) (let ((?v_7 (_ bv0 32))) (let ((?v_8 (_ bv0 32))) (let ((?v_9 (_ bv0 32))) (let ((?v_10 (_ bv0 32))) (let ((?v_11 (bvsub (_ bv0 32) (_ bv48 32)))) (let ((?v_12 (bvsub (bvadd ((_ zero_extend 24) x8) (bvshl (bvadd (_ bv0 32) (bvshl (_ bv0 32) (_ bv0 32))) ?v_3)) (_ bv48 32)))) (let ((?v_14 (bvadd (_ bv0 32) (bvshl (bvadd ?v_12 (bvshl ?v_12 (_ bv0 32))) ?v_3)))) (let ((?v_17 (bvadd ?v_14 (_ bv3 32))) (?v_0 (bvsub ((_ zero_extend 24) x10) (_ bv48 32)))) (let ((?v_1 (bvsub (bvadd ((_ zero_extend 24) x11) (bvshl (bvadd ?v_0 (_ bv0 32)) ?v_3)) (_ bv48 32)))) (let ((?v_13 (bvsub (bvadd ((_ zero_extend 24) x12) (bvshl (bvadd ?v_1 (bvshl ?v_1 (_ bv0 32))) ?v_3)) (_ bv48 32))) (?v_16 (bvadd ?v_14 (_ bv771 32)))) (let ((?v_15 (bvadd ?v_17 ?v_13))) (and true (= (bvadd ?v_13 (_ bv4294966528 32)) (_ bv0 32)) (bvult ?v_15 (bvadd ?v_14 (_ bv1027 32))) (bvule ?v_16 ?v_15) (bvult ?v_16 (bvadd ?v_13 ?v_17))))))))))))))))))
(check-sat)
(exit)
